
n_res = 4;
rcap = [93, 92, 526, 494];
rtype = [1, 1, 2, 2];
n_tasks = 100;
modes =  [{1, 2, 3}, {4, 5, 6}, {7, 8, 9}, {10, 11, 12}, {13, 14, 15}, {16, 17, 18}, {19, 20, 21}, {22, 23, 24}, {25, 26, 27}, {28, 29, 30}, {31, 32, 33}, {34, 35, 36}, {37, 38, 39}, {40, 41, 42}, {43, 44, 45}, {46, 47, 48}, {49, 50, 51}, {52, 53, 54}, {55, 56, 57}, {58, 59, 60}, {61, 62, 63}, {64, 65, 66}, {67, 68, 69}, {70, 71, 72}, {73, 74, 75}, {76, 77, 78}, {79, 80, 81}, {82, 83, 84}, {85, 86, 87}, {88, 89, 90}, {91, 92, 93}, {94, 95, 96}, {97, 98, 99}, {100, 101, 102}, {103, 104, 105}, {106, 107, 108}, {109, 110, 111}, {112, 113, 114}, {115, 116, 117}, {118, 119, 120}, {121, 122, 123}, {124, 125, 126}, {127, 128, 129}, {130, 131, 132}, {133, 134, 135}, {136, 137, 138}, {139, 140, 141}, {142, 143, 144}, {145, 146, 147}, {148, 149, 150}, {151, 152, 153}, {154, 155, 156}, {157, 158, 159}, {160, 161, 162}, {163, 164, 165}, {166, 167, 168}, {169, 170, 171}, {172, 173, 174}, {175, 176, 177}, {178, 179, 180}, {181, 182, 183}, {184, 185, 186}, {187, 188, 189}, {190, 191, 192}, {193, 194, 195}, {196, 197, 198}, {199, 200, 201}, {202, 203, 204}, {205, 206, 207}, {208, 209, 210}, {211, 212, 213}, {214, 215, 216}, {217, 218, 219}, {220, 221, 222}, {223, 224, 225}, {226, 227, 228}, {229, 230, 231}, {232, 233, 234}, {235, 236, 237}, {238, 239, 240}, {241, 242, 243}, {244, 245, 246}, {247, 248, 249}, {250, 251, 252}, {253, 254, 255}, {256, 257, 258}, {259, 260, 261}, {262, 263, 264}, {265, 266, 267}, {268, 269, 270}, {271, 272, 273}, {274, 275, 276}, {277, 278, 279}, {280, 281, 282}, {283, 284, 285}, {286, 287, 288}, {289, 290, 291}, {292, 293, 294}, {295, 296, 297}, {298, 299, 300}];
succ =  [{100, 99, 70, 67, 65, 64, 59, 56, 54, 50, 49, 48, 46, 40, 39, 38, 36, 28, 18}, {90, 66, 65, 59, 51, 50, 45, 43, 39, 32, 6}, {100, 99, 98, 72, 71, 69, 68, 67, 62, 61, 60, 58, 57, 56, 43, 41, 39, 38, 34}, {100, 99, 92, 90, 89, 70, 69, 67, 65, 64, 61, 60, 59, 57, 55, 53, 46, 43, 36}, {100, 72, 68, 67, 56, 54, 53, 49, 46, 44, 34, 21}, {100, 99, 98, 96, 95, 93, 88, 69, 68, 67, 64, 63, 62, 61, 58, 57, 47, 28}, {100, 99, 96, 93, 85, 71, 70, 68, 66, 61, 60, 56, 55, 44, 41, 29}, {100, 99, 71, 66, 65, 63, 60, 58, 56, 51, 36, 31}, {90, 69, 63, 61, 60, 51, 41, 37, 36, 34}, {99, 98, 97, 96, 95, 94, 93, 88, 86, 85, 82, 81, 68, 65, 64, 62, 61, 60, 59, 57, 56, 55, 45}, {100, 99, 97, 96, 90, 87, 86, 83, 75, 69, 67, 66, 65, 61, 59, 58, 57, 55, 35}, {98, 96, 92, 91, 88, 87, 71, 70, 68, 67, 52, 47, 41, 38}, {100, 99, 98, 97, 96, 91, 88, 86, 67, 63, 61, 60, 59, 56, 55, 52, 40}, {98, 97, 96, 94, 93, 92, 89, 87, 61, 57, 56, 55, 52, 49, 44}, {98, 85, 84, 79, 68, 66, 64, 63, 62, 60, 56, 48, 47, 43}, {91, 89, 88, 86, 70, 62, 60, 56, 51, 48, 38}, {97, 94, 92, 88, 67, 62, 61, 60, 57, 56, 55, 54, 52, 46}, {91, 90, 87, 84, 83, 82, 80, 72, 66, 62, 61, 60, 58, 34}, {96, 92, 91, 88, 87, 86, 81, 79, 78, 71, 64, 63, 60, 57, 56, 52}, {100, 95, 92, 91, 88, 87, 86, 83, 79, 73, 68, 67, 61, 60, 54, 47}, {97, 94, 93, 90, 89, 88, 87, 86, 85, 83, 81, 78, 76, 75, 62, 58, 57, 55}, {99, 97, 94, 86, 85, 82, 81, 78, 69, 63, 61, 60, 58, 56, 55}, {98, 97, 96, 95, 93, 92, 90, 89, 87, 86, 84, 83, 81, 80, 79, 77, 72, 67, 62, 60}, {100, 91, 87, 86, 70, 62, 60, 56, 38}, {100, 99, 98, 94, 93, 92, 90, 87, 86, 83, 79, 78, 77, 75, 63, 57, 52}, {100, 99, 95, 93, 89, 88, 87, 78, 75, 66, 61, 55, 52}, {98, 96, 93, 92, 91, 88, 78, 61, 57, 56, 55}, {94, 92, 91, 89, 87, 83, 81, 78, 75, 74, 55, 52}, {95, 90, 88, 86, 79, 77, 69, 39}, {98, 93, 91, 90, 88, 85, 84, 82, 78, 77, 76, 73, 70, 60}, {91, 90, 89, 86, 82, 80, 78, 75, 61, 55}, {96, 95, 94, 89, 88, 86, 85, 84, 83, 75, 74, 73, 68}, {98, 95, 90, 89, 88, 87, 82, 79, 78, 75, 73, 61}, {97, 96, 95, 94, 93, 86, 85, 81, 78, 74, 55}, {95, 93, 91, 89, 88, 85, 82, 81, 79, 76, 62}, {98, 96, 93, 88, 87, 83, 81, 52}, {99, 97, 91, 88, 86, 84, 81, 80, 74, 73, 67}, {95, 93, 90, 85, 78, 74, 66, 55}, {94, 92, 91, 89, 87, 83, 80, 76, 75, 74, 73}, {89, 87, 82, 81, 80, 78, 76, 75, 62}, {94, 89, 84, 83, 82, 81, 80, 78, 75, 74}, {96, 86, 85, 83, 78, 74, 55}, {96, 95, 88, 86, 83, 81, 75, 74, 73}, {95, 91, 81, 80, 79, 78, 75, 74, 73}, {92, 89, 80, 79, 77, 76, 75, 74, 73}, {93, 87, 86, 79, 78, 76, 75, 73}, {97, 89, 81, 78, 77, 76, 74}, {97, 95, 94, 92, 87, 82, 76}, {88, 86, 78, 76, 62}, {96, 82, 77, 76, 60}, {94, 84, 83, 75, 74, 73}, {85, 84, 82, 76, 73}, {94, 82, 75, 74, 73}, {80, 74, 66}, {79, 77, 73}, {90, 83, 75}, {84, 80, 73}, {92, 79, 73}, {84, 78, 77}, {75, 74}, {76, 74}, {74, 73}, {80, 73}, {83, 77}, {91, 77}, {81}, {82}, {76}, {73}, {80}, {73}, {73}, {}, {}, {}, {}, {}, {}, {}, {}, {}, {}, {}, {}, {}, {}, {}, {}, {}, {}, {}, {}, {}, {}, {}, {}, {}, {}, {}, {}];
n_opt = 300;
dur = [6, 8, 9, 2, 4, 9, 1, 7, 10, 1, 6, 8, 1, 4, 8, 1, 4, 7, 3, 9, 10, 2, 8, 9, 2, 5, 7, 2, 5, 7, 1, 2, 4, 1, 2, 6, 6, 7, 8, 4, 5, 6, 7, 8, 10, 1, 8, 9, 2, 3, 10, 6, 7, 9, 2, 2, 7, 2, 3, 4, 1, 2, 3, 1, 4, 8, 2, 3, 5, 2, 5, 7, 1, 6, 9, 5, 8, 10, 3, 4, 9, 2, 5, 6, 4, 5, 8, 4, 5, 9, 1, 3, 8, 4, 6, 8, 2, 8, 10, 3, 6, 8, 2, 6, 7, 4, 5, 8, 6, 8, 10, 1, 2, 5, 5, 6, 10, 2, 6, 7, 8, 9, 10, 5, 6, 7, 1, 7, 10, 3, 8, 10, 4, 5, 6, 1, 3, 6, 2, 3, 10, 1, 9, 10, 3, 5, 7, 4, 6, 7, 1, 3, 4, 4, 6, 9, 1, 4, 5, 3, 6, 7, 3, 9, 10, 1, 2, 5, 4, 9, 10, 2, 6, 9, 2, 8, 10, 3, 9, 10, 4, 5, 7, 1, 4, 8, 5, 6, 8, 4, 6, 10, 6, 7, 10, 1, 2, 3, 2, 5, 10, 2, 3, 10, 5, 7, 9, 3, 4, 9, 3, 8, 10, 1, 2, 8, 4, 7, 9, 2, 6, 10, 6, 9, 10, 4, 7, 9, 7, 8, 9, 4, 5, 10, 4, 6, 7, 2, 3, 10, 2, 6, 10, 7, 8, 9, 1, 4, 8, 2, 8, 9, 2, 6, 7, 7, 9, 10, 1, 6, 7, 1, 2, 4, 4, 5, 10, 2, 4, 6, 1, 5, 9, 2, 3, 5, 1, 7, 9, 1, 7, 8, 2, 3, 10, 5, 6, 7, 2, 3, 4, 3, 5, 9, 5, 6, 7, 1, 5, 10];
rreq = [|7, 5, 5, 7, 6, 5, 4, 3, 1, 4, 3, 2, 4, 2, 1, 9, 7, 7, 7, 6, 6, 8, 8, 7, 6, 4, 1, 5, 3, 1, 10, 9, 8, 9, 6, 6, 4, 3, 2, 9, 7, 4, 7, 6, 5, 8, 7, 7, 5, 4, 3, 5, 5, 5, 5, 5, 5, 6, 3, 3, 9, 8, 8, 7, 7, 7, 6, 5, 3, 8, 6, 1, 8, 7, 5, 8, 5, 4, 8, 7, 7, 9, 9, 9, 10, 7, 4, 5, 5, 5, 4, 2, 2, 7, 6, 6, 6, 5, 2, 4, 3, 1, 6, 6, 5, 7, 6, 6, 2, 1, 1, 9, 8, 6, 7, 6, 3, 8, 6, 3, 7, 6, 5, 5, 3, 2, 9, 5, 5, 9, 8, 8, 8, 5, 4, 9, 7, 6, 8, 5, 4, 8, 5, 5, 5, 4, 3, 10, 4, 1, 5, 4, 4, 5, 5, 5, 4, 3, 2, 8, 7, 7, 10, 9, 9, 6, 6, 3, 10, 7, 6, 10, 8, 6, 8, 7, 4, 5, 3, 3, 9, 8, 8, 9, 6, 4, 9, 9, 7, 3, 3, 2, 3, 3, 2, 5, 5, 3, 9, 8, 6, 7, 5, 5, 9, 5, 1, 7, 7, 4, 5, 4, 4, 10, 8, 7, 9, 6, 6, 5, 4, 4, 5, 4, 3, 3, 2, 1, 8, 6, 5, 9, 9, 7, 4, 4, 4, 6, 4, 4, 7, 4, 4, 2, 2, 2, 9, 8, 8, 2, 2, 2, 4, 3, 2, 1, 1, 1, 9, 7, 4, 7, 5, 3, 6, 5, 3, 4, 3, 2, 8, 5, 4, 8, 6, 4, 8, 7, 7, 6, 3, 1, 5, 4, 3, 5, 3, 2, 9, 8, 6, 5, 4, 1, 10, 4, 4, 6, 5, 4
 |6, 4, 4, 3, 2, 2, 8, 6, 6, 9, 4, 2, 7, 7, 6, 7, 7, 7, 4, 4, 4, 8, 7, 7, 9, 6, 5, 10, 4, 4, 7, 7, 3, 4, 4, 1, 6, 6, 4, 6, 5, 4, 6, 6, 6, 3, 2, 2, 5, 3, 2, 7, 5, 3, 5, 2, 2, 6, 5, 2, 9, 7, 7, 10, 9, 9, 4, 4, 4, 5, 3, 3, 8, 8, 5, 8, 7, 7, 9, 7, 5, 2, 1, 1, 9, 6, 5, 3, 2, 2, 6, 6, 6, 9, 9, 9, 8, 6, 6, 5, 4, 4, 7, 3, 2, 6, 6, 2, 5, 5, 5, 3, 3, 3, 1, 1, 1, 8, 6, 6, 4, 3, 2, 8, 6, 5, 3, 2, 1, 2, 2, 1, 6, 5, 5, 7, 6, 5, 8, 5, 2, 5, 2, 1, 8, 7, 5, 9, 4, 3, 8, 8, 7, 6, 4, 4, 7, 6, 3, 5, 4, 1, 5, 5, 5, 6, 6, 6, 9, 5, 5, 9, 9, 9, 2, 2, 2, 9, 8, 6, 8, 5, 3, 8, 5, 3, 7, 5, 3, 8, 4, 3, 7, 7, 6, 6, 5, 4, 7, 4, 2, 3, 3, 2, 3, 3, 2, 3, 2, 2, 9, 9, 9, 6, 4, 4, 9, 7, 6, 7, 5, 5, 8, 7, 7, 8, 5, 4, 10, 5, 5, 5, 5, 1, 4, 4, 3, 10, 7, 6, 2, 1, 1, 3, 2, 2, 9, 5, 2, 7, 7, 5, 8, 5, 4, 8, 7, 6, 3, 2, 2, 5, 4, 4, 9, 6, 5, 6, 5, 5, 6, 4, 1, 6, 4, 4, 7, 7, 7, 10, 10, 10, 6, 4, 1, 2, 2, 2, 4, 4, 4, 6, 6, 5, 6, 6, 5, 9, 4, 1
 |5, 5, 4, 7, 7, 6, 2, 2, 2, 4, 3, 2, 7, 7, 4, 6, 6, 6, 6, 5, 5, 10, 6, 4, 9, 9, 8, 5, 4, 1, 8, 8, 7, 5, 4, 4, 7, 7, 7, 6, 4, 3, 7, 7, 7, 9, 6, 6, 5, 5, 5, 3, 3, 2, 6, 3, 3, 1, 1, 1, 7, 3, 3, 5, 5, 3, 5, 5, 4, 6, 5, 3, 9, 6, 5, 6, 5, 2, 7, 5, 4, 8, 7, 6, 7, 4, 3, 8, 6, 5, 9, 7, 4, 10, 9, 9, 6, 4, 4, 4, 3, 2, 6, 6, 6, 8, 7, 2, 9, 8, 8, 8, 7, 4, 5, 4, 3, 8, 4, 3, 9, 7, 7, 8, 8, 8, 9, 8, 7, 6, 5, 3, 2, 1, 1, 5, 5, 5, 6, 6, 5, 7, 6, 6, 9, 6, 5, 7, 5, 3, 2, 2, 2, 5, 5, 3, 6, 4, 3, 6, 5, 5, 9, 9, 9, 4, 2, 1, 6, 5, 3, 3, 1, 1, 8, 8, 6, 7, 7, 5, 7, 7, 7, 6, 4, 3, 3, 1, 1, 7, 7, 5, 7, 4, 3, 9, 6, 5, 8, 7, 7, 2, 1, 1, 5, 3, 1, 9, 6, 3, 6, 5, 2, 5, 4, 4, 9, 4, 4, 9, 8, 8, 5, 3, 1, 7, 3, 2, 5, 5, 5, 10, 9, 8, 4, 3, 3, 5, 5, 2, 7, 6, 5, 5, 2, 1, 4, 3, 2, 6, 5, 5, 8, 8, 7, 4, 3, 2, 9, 7, 4, 4, 4, 4, 2, 1, 1, 8, 7, 6, 2, 2, 2, 9, 4, 3, 10, 9, 9, 7, 4, 3, 6, 5, 5, 5, 5, 5, 7, 7, 7, 6, 5, 3, 7, 7, 6, 6, 6, 6
 |8, 3, 2, 7, 7, 5, 7, 6, 2, 6, 4, 4, 4, 3, 3, 7, 4, 3, 6, 4, 3, 9, 8, 7, 5, 4, 4, 9, 7, 7, 6, 4, 3, 6, 4, 2, 3, 3, 2, 7, 5, 3, 8, 7, 6, 10, 9, 8, 8, 8, 8, 7, 4, 3, 1, 2, 1, 6, 6, 6, 3, 3, 2, 7, 6, 6, 6, 6, 6, 5, 3, 2, 4, 3, 1, 5, 3, 2, 8, 7, 6, 5, 4, 3, 10, 8, 5, 5, 4, 3, 10, 5, 5, 5, 5, 2, 5, 5, 4, 8, 4, 2, 6, 6, 6, 2, 2, 2, 7, 5, 4, 2, 2, 2, 9, 6, 5, 2, 2, 2, 6, 4, 1, 10, 8, 7, 10, 4, 2, 10, 7, 4, 9, 9, 7, 5, 5, 5, 3, 2, 2, 4, 3, 3, 8, 6, 1, 5, 3, 3, 5, 5, 5, 9, 5, 2, 10, 8, 5, 5, 2, 1, 2, 3, 2, 6, 4, 4, 7, 5, 3, 5, 5, 2, 8, 7, 7, 5, 4, 1, 4, 2, 2, 4, 3, 1, 8, 8, 8, 7, 6, 6, 5, 4, 3, 6, 6, 5, 2, 1, 1, 10, 4, 2, 8, 7, 5, 8, 6, 2, 4, 4, 4, 8, 8, 8, 5, 5, 1, 8, 4, 3, 4, 4, 4, 3, 2, 2, 8, 5, 4, 7, 6, 2, 7, 5, 2, 6, 6, 4, 8, 4, 2, 4, 3, 1, 7, 7, 4, 4, 2, 1, 7, 4, 4, 7, 7, 7, 3, 3, 2, 8, 6, 6, 8, 5, 2, 10, 9, 9, 4, 4, 3, 6, 5, 5, 4, 3, 2, 2, 2, 2, 9, 9, 9, 5, 5, 2, 8, 6, 4, 9, 7, 6, 3, 3, 3, 7, 4, 2|];